c --- [ banner ] -------------------------------------------------------------
c 
c CaDiCaL Radically Simplified CDCL SAT Solver
c Copyright (c) 2016-2021 A. Biere, M. Fleury, N. Froleyks
c 
c Version 1.5.2 a5f15211db36c3956764e18194dd5bd63bf3b5e6
c g++ (GCC) 9.3.0 -Wall -Wextra -O3 -DNDEBUG
c Fri Oct 21 01:27:37 EDT 2022 Linux gra-login3 3.10.0-1160.66.1.el7.x86_64 x86_64
c 
c --- [ limit ] --------------------------------------------------------------
c 
c setting conflict limit to 200000 conflicts (due to '200000')
c 
c --- [ parsing input ] ------------------------------------------------------
c 
c reading DIMACS file from '33.cubes5166.adj'
c opening file to read '33.cubes5166.adj'
c found 'p cnf 6160 1595478' header
c parsed 1595478 clauses in 19.45 seconds process time
c closing file '33.cubes5166.adj'
c after reading 1457566797 bytes 1390.0 MB
c 
c --- [ options ] ------------------------------------------------------------
c 
c all options are set to their default value
c 
c --- [ solving ] ------------------------------------------------------------
c 
c time measured in process time since initialization
c 
c  seconds    reductions  redundant   irredundant
c          MB     restarts       trail       variables
c            level   conflicts       glue         remaining
c 
c * 19.45 1376  0 0   0    0    0  0% 0 1595422 2382 39%
c { 20.59 1427  0 0   0    0    0  0% 0 1595422 2382 39%
c i 20.84 1431 141 0   0    8    3 18% 1 1595422 2366 38%
c i 24.54 1508 239 0  17   94   68 30% 17 1595422 2342 38%
c i 24.99 1513 197 0  22  116   87 30% 18 1595422 2341 38%
c i 26.04 1518 149 0  40  187  148 30% 25 1595422 2340 38%
c i 26.46 1519 151 0  43  201  160 29% 29 1595422 2339 38%
c i 26.69 1519 153 0  45  210  168 29% 32 1595422 2338 38%
c i 26.79 1520 150 0  47  216  173 29% 32 1595422 2337 38%
c i 27.18 1522 142 0  50  235  188 29% 31 1595422 2336 38%
c - 32.31 1420 115 1  53  302  250 29% 27 355401 2336 38%
c i 32.40 1420 115 1  53  303  250 29% 27 355401 2335 38%
c i 32.43 1420 115 1  53  304  250 29% 27 355401 2334 38%
c i 33.09 1420 117 1  56  360  299 29% 28 355401 2333 38%
c i 33.32 1420 116 1  60  375  312 29% 28 355401 2332 38%
c i 33.85 1420 108 1  69  442  364 28% 29 355401 2331 38%
c i 33.91 1420 106 1  69  456  376 28% 29 355401 2330 38%
c i 33.92 1420 105 1  69  459  378 28% 29 355401 2329 38%
c i 34.28 1420 105 1  76  506  420 28% 31 355401 2328 38%
c i 35.03 1421 104 1  85  560  469 28% 31 355401 2295 37%
c 
c  seconds     reductions  redundant   irredundant
c          MB      restarts       trail       variables
c             level   conflicts       glue         remaining
c 
c i 35.41 1421 101 1  87  599  499 28% 31 355401 2292 37%
c i 36.06 1422 105 1 102  664  551 27% 36 355401 2291 37%
c i 36.54 1422 105 1 108  685  571 27% 35 355401 2290 37%
c i 36.81 1422 104 1 113  701  585 27% 35 355401 2289 37%
c i 37.16 1422 102 1 117  754  629 28% 35 355401 2288 37%
c i 37.25 1422 101 1 117  767  640 28% 35 355401 2287 37%
c i 37.34 1422 100 1 117  783  651 28% 35 355401 2286 37%
c i 37.38 1422 99 1 117  796  662 28% 35 355401 2285 37%
c i 37.45 1422 98 1 117  808  672 28% 35 355401 2284 37%
c i 37.50 1423 97 1 117  817  678 28% 34 355401 2283 37%
c i 37.82 1423 91 1 119  932  771 28% 34 355401 2282 37%
c i 37.82 1423 91 1 119  934  772 28% 34 355401 2281 37%
c i 37.82 1423 91 1 119  935  772 28% 34 355401 2280 37%
c i 37.90 1423 87 1 119  989  817 28% 33 355401 2279 37%
c i 37.94 1423 87 1 119  990  817 28% 33 355401 2278 37%
c i 37.94 1423 87 1 119  991  817 28% 33 355401 2277 37%
c i 37.94 1423 87 1 119  992  817 28% 33 355401 2276 37%
c i 37.94 1423 87 1 119  993  817 28% 33 355401 2275 37%
c i 37.94 1423 87 1 119  994  817 28% 33 355401 2274 37%
c i 37.94 1423 87 1 119  995  817 28% 33 355401 2273 37%
c 
c  seconds    reductions  redundant   irredundant
c          MB     restarts       trail       variables
c            level   conflicts       glue         remaining
c 
c } 38.08 1423 87 1 119 1000  820 28% 33 355401 2273 37%
c [ 38.08 1423  0 1 119 1000  820  0% 0 355401 2273 37%
c O 38.13 1423 66 1 119 1004  824 23% 6 355401 2273 37%
c i 38.50 1423 21 1 119 1130  904 29% 15 355401 2272 37%
c i 38.62 1423 22 1 119 1204  959 29% 17 355401 2271 37%
c - 39.40 1571 23 2 119 1232  854 29% 18 354765 2271 37%
c i 39.66 1571 24 2 119 1271  892 29% 18 354765 2270 37%
c i 39.71 1571 24 2 119 1288  903 29% 19 354765 2269 37%
c i 39.79 1571 24 2 119 1328  927 30% 19 354765 2268 37%
c i 39.84 1571 25 2 119 1409  973 30% 20 354765 2267 37%
c i 40.19 1571 34 2 119 1980 1409 31% 29 354765 2266 37%
c i 40.33 1571 33 2 120 2199 1570 31% 28 354765 2265 37%
c i 40.33 1571 33 2 120 2203 1573 31% 28 354765 2264 37%
c i 40.43 1571 33 2 120 2365 1682 31% 28 354765 2263 37%
c - 41.06 1569 33 3 120 2627 1443 31% 28 354741 2263 37%
c ] 41.77 1535 32 3 120 3002 1688 52% 27 354741 2263 37%
c { 41.77 1535 87 3 120 3002 1688 76% 33 354741 2263 37%
c F 41.82 1535 87 3 120 3005 1689 76% 33 354741 2263 37%
c i 42.63 1535 68 3 121 3475 2067 66% 27 354741 2262 37%
c i 42.63 1535 67 3 121 3476 2067 66% 27 354741 2261 37%
c 
c  seconds    reductions  redundant   irredundant
c          MB     restarts       trail       variables
c            level   conflicts       glue         remaining
c 
c i 46.37 1535 67 3 209 4120 2647 59% 30 354741 2260 37%
c i 47.50 1535 68 3 245 4422 2892 57% 32 354741 2259 37%
c - 48.30 1534 68 4 251 4486 2126 57% 32 354729 2259 37%
c i 48.53 1534 67 4 251 4574 2195 56% 31 354729 2258 37%
c i 48.87 1534 66 4 254 4647 2258 56% 31 354729 2257 37%
c i 49.04 1534 66 4 258 4752 2348 56% 31 354729 2256 37%
c d 50.84 1534 65 4 272 5003 2564 54% 31 331185 2247 36%
c 2 50.92 1534 65 4 272 5003 3554 54% 31 331185 2223 36%
c p 58.08 1534 65 4 272 5003 6442 54% 31 331185 2192 36%
c d 58.62 1534 65 4 272 5003 6381 54% 31 312283 2188 36%
c # 59.72 1534 56 4 280 6007 7078 52% 28 312283 2188 36%
c - 60.70 1392 51 5 298 6810 2943 52% 27 312283 2188 36%
c } 60.78 1392 49 5 298 7003 3034 52% 27 312283 2188 36%
c [ 60.78 1392 32 5 298 7003 3034 52% 27 312283 2188 36%
c - 63.32 1393 28 6 300 9501 2927 49% 23 312283 2188 36%
c I 63.94 1393 30 6 300 10009 3353 49% 25 312283 2188 36%
c - 66.13 1393 30 7 302 12640 3852 49% 25 312283 2188 36%
c ] 67.38 1393 30 7 303 15003 5534 49% 25 312283 2188 36%
c { 67.38 1393 49 7 303 15003 5534 52% 27 312283 2188 36%
c 3 67.41 1393 49 7 303 15003 6521 52% 27 312274 2188 36%
c 
c  seconds    reductions   redundant   irredundant
c          MB     restarts        trail       variables
c            level    conflicts       glue         remaining
c 
c p 70.24 1393 49 7 303 15003 9754 52% 27 312274 2188 36%
c B 70.47 1393 50 7 303 15010 9761 52% 27 312274 2188 36%
c - 72.71 1393 47 8 366 16227 4646 51% 26 312274 2188 36%
c } 73.00 1393 45 8 366 16832 5065 51% 26 312274 2188 36%
c 1 73.00 1393 45 8 366 16832 5065 51% 26 312274 2188 36%
c 
c --- [ writing output ] -----------------------------------------------------
c 
c writing simplified CNF to DIMACS file 'simp/33.cubes5166.adj.simp1'
c * 73.00 1393 45 8 366 16832 5065 51% 26 312274 2188 36%
c opening file to write 'simp/33.cubes5166.adj.simp1'
c writing 'p cnf 6160 312274' header
c closing file 'simp/33.cubes5166.adj.simp1'
c after writing 135864690 bytes 129.6 MB
c wrote 312274 clauses in 1.07 seconds process time
c 
c --- [ writing extension ] --------------------------------------------------
c 
c writing extension stack to 'simp/33.cubes5166.adj.ext1'
c opening file to write 'simp/33.cubes5166.adj.ext1'
c closing file 'simp/33.cubes5166.adj.ext1'
c after writing 12551 bytes 0.0 MB
c wrote 841 witnesses in 0.00 seconds process time
c 
c --- [ result ] -------------------------------------------------------------
c 
s SATISFIABLE
c 
c --- [ run-time profiling ] -------------------------------------------------
c 
c process time taken by individual solving procedures
c (percentage relative to process time for solving)
c 
c        42.30   78.99% search
c        30.86   57.64% unstable
c        19.45   36.33% parse
c        11.25   21.01% simplify
c        10.30   19.23% stable
c         9.93   18.54% probe
c         1.14    2.12% lucky
c         0.10    0.19% ternary
c   =================================
c        53.55   72.29% solve
c 
c last line shows process time for solving
c (percentage relative to total process time)
c 
c --- [ statistics ] ---------------------------------------------------------
c 
c chronological:              3485        20.70 %  of conflicts
c conflicts:                 16832       314.34    per second
c decisions:                 57442      1072.74    per second
c fixed:                       815        13.23 %  of all variables
c learned:                   16442        97.68 %  per conflict
c learned_lits:            2888750       100.00 %  learned literals
c minimized:                     0         0.00 %  learned literals
c shrunken:                1710343        59.21 %  learned literals
c minishrunken:             245261         8.49 %  learned literals
c propagations:            2488565         0.05 M  per second
c reduced:                    7044        41.85 %  per conflict
c rephased:                      5      3366.40    interval
c restarts:                    366        45.99    interval
c stabilizing:                   2        59.42 %  of conflicts
c substituted:                  13         0.21 %  of all variables
c subsumed:                   4422         0.13 %  of all clauses
c ternary:                    2163         0.54 %  of resolved
c weakened:                     26         2.00    average size
c 
c seconds are measured in process time for solving
c 
c --- [ resources ] ----------------------------------------------------------
c 
c total process time since initialization:        74.08    seconds
c total real time since initialization:           75.63    seconds
c maximum resident set size of process:         1717.06    MB
c 
c --- [ shutting down ] ------------------------------------------------------
c 
c exit 10
WARNING! DIMACS header mismatch: wrong number of variables.
============================[ Problem Statistics ]=============================
|                                                                             |
|  Number of variables:          6120                                         |
|  Number of clauses:          312280                                         |
|  Parse time:                   1.92 s                                       |
|  Simplification time:          0.08 s                                       |
|                                                                             |
============================[ Search Statistics ]====================================================
| Conflicts |          ORIGINAL         |          LEARNT          | Num Sols |      SUBGRAPHS      |
|           |    Vars  Clauses Literals |    Limit  Clauses Lit/Cl |          | Canonical Noncanon. |
=====================================================================================================
|       100 |    6026   312280 29404571 |     2000      100    107 |        0 |        22         0 |
|       255 |    6026   312285 29404796 |     2000      255     88 |        0 |        37         5 |
|       483 |    6026   312288 29404901 |     2000      483     94 |        0 |        49         8 |
|       820 |    6026   312288 29404901 |     2000      820     95 |        0 |        54         8 |
|      1338 |    6026   312300 29405253 |     2000     1338     94 |        0 |        84        20 |
|      2128 |    6026   312331 29405896 |     3600     1128     66 |        0 |       111        51 |
|      3290 |    6026   312354 29406455 |     3600     2290     86 |        0 |       149        74 |
|      5298 |    6026   312654 29413020 |     5000     2498     58 |        0 |       246       374 |
|      8002 |    6026   312796 29416135 |     6308     2710     53 |        0 |       279       516 |
|     12080 |    6026   313030 29420010 |     7556     3636     54 |        0 |       331       750 |
|     18052 |    6026   313236 29424072 |     8780     5832     62 |        0 |       422       956 |
|     26984 |    6026   313519 29428984 |    11204     5388     39 |        0 |       588      1239 |
|     40583 |    6026   314144 29440485 |    13618     7201     46 |        0 |       647      1864 |
|     61052 |    6026   315152 29458411 |    16011    13463     62 |        0 |       871      2872 |
|     90951 |    6026   315859 29471011 |    19608    17559     65 |        0 |      1133      3579 |
|    135186 |    6026   316305 29480626 |    24408    18994     59 |        0 |      1266      4025 |
|    201257 |    6026   316692 29488410 |    30416    18073     52 |        0 |      1432      4412 |
|    300635 |    6026   317544 29506914 |    36416    35451     68 |        0 |      1727      5264 |
|    452224 |    6026   321344 29592621 |    46009    24633     43 |        0 |      2779      9064 |
|    676931 |    6026   324368 29664507 |    55616    48547     62 |        0 |      3572     12088 |
|   1013170 |    6026   328082 29749042 |    68812    45982     53 |        0 |      4483     15802 |
|   1526519 |    6026   342643 30045989 |    84427    65346     58 |        0 |      7706     30363 |
|   2289467 |    6026   357409 30375262 |   103631    81098     56 |        0 |     10983     45129 |
|   3438066 |    6006   358288 29182354 |   127587    79653     51 |        0 |     16565     71454 |
=====================================================================================================
Number of solutions   : 0
Canonical subgraphs   : 22234          (10 /sec)
          order  3    : 1              (166667 /sec)
          order  4    : 1              (500000 /sec)
          order  5    : 1              (250000 /sec)
          order  6    : 1              (52632 /sec)
          order  7    : 1              (8850 /sec)
          order  8    : 2              (1361 /sec)
          order  9    : 6              (315 /sec)
          order 10    : 24             (92 /sec)
          order 11    : 94             (26 /sec)
          order 12    : 436            (7 /sec)
          order 13    : 2236           (5 /sec)
          order 14    : 11112          (10 /sec)
          order 15    : 6505           (11 /sec)
          order 16    : 1171           (14 /sec)
          order 17    : 406            (11 /sec)
          order 18    : 112            (10 /sec)
          order 19    : 98             (9 /sec)
          order 20    : 18             (7 /sec)
          order 21    : 9              (7 /sec)
          order 22    : 0              (-nan /sec)
Noncanonical subgraphs: 105953         (703 /sec)
          order  3    : 0              (-nan /sec)
          order  4    : 0              (-nan /sec)
          order  5    : 0              (-nan /sec)
          order  6    : 0              (-nan /sec)
          order  7    : 0              (-nan /sec)
          order  8    : 0              (-nan /sec)
          order  9    : 0              (-nan /sec)
          order 10    : 0              (-nan /sec)
          order 11    : 0              (-nan /sec)
          order 12    : 0              (-nan /sec)
          order 13    : 7109           (8431 /sec)
          order 14    : 31133          (3467 /sec)
          order 15    : 63103          (663 /sec)
          order 16    : 4344           (103 /sec)
          order 17    : 249            (133 /sec)
          order 18    : 6              (36 /sec)
          order 19    : 0              (-nan /sec)
          order 20    : 0              (-nan /sec)
          order 21    : 0              (-nan /sec)
Canonicity checking   : 2283 s
Noncanonicity checking: 150.82 s
Total canonicity time : 2433.82 s
database reductions   : 127
restarts              : 8191
conflicts             : 5097840        (989 /sec)
decisions             : 6366139        (0.00 % random) (1235 /sec)
propagations          : 592585442      (114925 /sec)
conflict literals     : 465474953      (58.12 % deleted)
actual reward         : 0.107549
Memory used           : 396.00 MB
CPU time              : 5156.29 s

UNSATISFIABLE
